% demand
num_movements = 24;
loading_factor = [1150, 1800, 1000, 1400, 1750, 1950, 2000, 1100, 1000, 1200, 1950, 1750, 1600, 1100, 1850, 800, 800, 1450, 1850, 1350, 1550, 1800, 2000, 1600];
pickup_time = [0, 0, 0, 1, 1, 3, 3, 4, 4, 4, 5, 6, 6, 7, 7, 8, 8, 9, 10, 10, 13, 13, 13, 13];
delivery_time = [1, 2, 1, 3, 3, 4, 4, 5, 5, 5, 6, 10, 7, 10, 11, 9, 10, 11, 13, 12, 14, 14, 14, 14];

% transporter definition
total_capacity = 7000;
num_decks = 3;
capacity = [3000, 1000, 3000];

% ways out of decks
num_ways_out = 1;
paths_out = array3d(decks, ways_out, decks, [
% ways out of deck d1
2, 3, 0, 

% ways out of deck d2
3, 0, 0, 

% ways out of deck d3
0, 0, 0,	

]);

